8	2	8	6	18	6	7	8	14	20	7	20	10	10	4	14	2	10	11	14
13	3	7	1	17	6	14	12	4	2	13	13	18	14	5	19	12	12	6	16
17	20	3	15	10	8	10	9	1	2	18	15	18	7	16	3	5	2	3	10
17	4	20	2	16	10	10	14	17	4	7	3	11	13	19	19	11	17	4	6
